NAME : F-n20-k7
CAPACITY : 613
NODE_COORD_SECTION
1   161   142
2   71   67
3   66   386
4   169   67
5   282   77
6   66   480
7   452   355
8   96   298
9   461   493
10   108   61
11   481   416
12   498   467
13   347   364
14   53   99
15   187   217
16   251   287
17   406   344
18   311   251
19   230   136
20   458   231
DEMAND_SECTION
1   0
2   31
3   10
4   56
5   16
6   68
7   56
8   23
9   7
10   11
11   97
12   66
13   33
14   52
15   42
16   34
17   87
18   55
19   41
20   48
DEPOT_SECTION
    1
    -1
EOF